ROUTE 0: 99 181 8 174 73 126 91 79 166 157 26 50 136 21 68 114 13 32 6 40 27 193 159 146 127 44 197 191 200 145 69 186 196 138 124 55 22 45 156 7 187 24 173 64 142 123 10 46 14 85 180 153 70 163
ROUTE 1: 74 34 63 100 190 36 192 62 179 137 117 162 35 177 134 182 135 170 83 176 66 133 17 58 89 16 158 82 104 106 76 108 188 28 97 149 94 33 52 39 72 49 120 175 81 51 1 59 155 140 129 77 92 115 18 80
ROUTE 2: 23 41 61 125 143 42 119 184 167 95 128 194 107 38 151 78 57 5 150 90 141 84 161 11 130 198 93 105 98 121 189 20 30 109 12 110 54 2 3 4 165 87 113 25 169 154 86 183 53 148 171 164
ROUTE 3: 111 144 131 199 56 47 116 65 19 118 152 43 139 88 103 172 37 9 29 147 160 15 195 132 31 185 71 101 48 178 112 122 102 60 75 67 96 168
FINAL_COST: 2460.59
